JulietBench/Juliet_Based_Patch_Bench/FFmpeg/CWE-189-Numeric-Errors/CVE_2014_8545_3e2b745020c2dbf0201fe7df3dad9e7e0b2e1bb6/Resultdecode_frame_Snippet_patch2NEQ.smt2
; benchmark generated from python API
(set-info :status unknown)
(declare-fun R () (_ BitVec 32))
(declare-fun rdi () (_ BitVec 64))
(declare-fun rsi () (_ BitVec 64))
(declare-fun rdx () (_ BitVec 64))
(assert
 (let (($x542 (and (distinct (_ bv0 32) R) true)))
 (let (($x534 (= (_ bv0 32) R)))
 (let ((?x6 ((_ extract 31 0) rdi)))
 (let (($x15 (= (_ bv2 32) ?x6)))
 (let ((?x8 ((_ extract 31 0) rsi)))
 (let (($x53 (= (_ bv2 32) ?x8)))
 (let (($x538 (and $x53 $x15 $x534)))
 (let (($x64 (= (_ bv4 32) ?x6)))
 (let (($x537 (and $x53 $x64 $x534)))
 (let (($x530 (= (_ bv1 32) R)))
 (let (($x57 (and (distinct (_ bv2 32) ?x8) true)))
 (let (($x153 (= (_ bv6 32) ?x8)))
 (let (($x536 (and $x153 $x57 $x15 $x530)))
 (let (($x42 (= (_ bv8 32) ?x6)))
 (let (($x535 (and $x53 $x42 $x534)))
 (let (($x523 (= (_ bv2 32) R)))
 (let (($x220 (and (distinct (_ bv6 32) ?x8) true)))
 (let (($x258 (= (_ bv0 32) ?x8)))
 (let (($x533 (and $x258 $x220 $x57 $x15 $x523)))
 (let (($x532 (and $x153 $x57 $x64 $x530)))
 (let (($x531 (and $x153 $x57 $x42 $x530)))
 (let (($x529 (and $x258 $x220 $x57 $x64 $x523)))
 (let (($x474 (= (_ bv6 32) R)))
 (let (($x259 (and (distinct (_ bv0 32) ?x8) true)))
 (let (($x144 (and (distinct (_ bv16 32) ?x6) true)))
 (let ((?x10 ((_ extract 31 0) rdx)))
 (let (($x46 (= (_ bv1 32) ?x10)))
 (let (($x278 (= (_ bv3 32) ?x8)))
 (let (($x528 (and $x278 $x46 $x144 $x259 $x220 $x57 $x15 $x474)))
 (let (($x526 (= (_ bv3 32) R)))
 (let (($x147 (= (_ bv16 32) ?x6)))
 (let (($x527 (and $x258 $x147 $x526)))
 (let (($x263 (and (distinct (_ bv1 32) ?x10) true)))
 (let (($x284 (= (_ bv2 32) ?x10)))
 (let (($x525 (and $x278 $x284 $x263 $x144 $x259 $x220 $x57 $x15 $x474)))
 (let (($x524 (and $x258 $x220 $x57 $x42 $x523)))
 (let (($x457 (= (_ bv4294967295 32) R)))
 (let (($x275 (and (distinct (_ bv3 32) ?x8) true)))
 (let (($x62 (and (distinct (_ bv1 32) ?x6) true)))
 (let (($x148 (and (distinct (_ bv8 32) ?x6) true)))
 (let (($x522 (and $x148 $x62 $x275 $x46 $x144 $x259 $x220 $x57 $x15 $x457)))
 (let (($x350 (and (distinct (_ bv2 32) ?x10) true)))
 (let (($x221 (= (_ bv4 32) ?x10)))
 (let (($x521 (and $x278 $x221 $x350 $x263 $x144 $x259 $x220 $x57 $x15 $x474)))
 (let (($x519 (= (_ bv4 32) R)))
 (let (($x520 (and $x53 $x259 $x147 $x519)))
 (let (($x518 (and $x148 $x62 $x275 $x284 $x263 $x144 $x259 $x220 $x57 $x15 $x457)))
 (let (($x368 (and (distinct (_ bv4 32) ?x10) true)))
 (let (($x366 (= (_ bv8 32) ?x10)))
 (let (($x517 (and $x278 $x366 $x368 $x350 $x263 $x144 $x259 $x220 $x57 $x15 $x474)))
 (let (($x516 (and $x278 $x46 $x144 $x259 $x220 $x57 $x64 $x474)))
 (let (($x41 (and (distinct (_ bv2 32) ?x6) true)))
 (let (($x140 (and (distinct (_ bv4 32) ?x6) true)))
 (let (($x515 (and $x278 $x46 $x144 $x148 $x140 $x41 $x474)))
 (let (($x514 (and $x148 $x62 $x275 $x221 $x350 $x263 $x144 $x259 $x220 $x57 $x15 $x457)))
 (let (($x374 (and (distinct (_ bv8 32) ?x10) true)))
 (let (($x513 (and $x148 $x62 $x374 $x368 $x350 $x263 $x144 $x259 $x220 $x57 $x15 $x457)))
 (let (($x512 (and $x278 $x284 $x263 $x144 $x259 $x220 $x57 $x64 $x474)))
 (let (($x510 (= (_ bv5 32) R)))
 (let (($x511 (and $x153 $x57 $x259 $x147 $x510)))
 (let (($x486 (= (_ bv7 32) R)))
 (let (($x261 (= (_ bv1 32) ?x6)))
 (let (($x508 (and $x261 $x275 $x46 $x144 $x148 $x140 $x41 $x486)))
 (let (($x507 (and $x278 $x284 $x263 $x144 $x148 $x140 $x41 $x474)))
 (let (($x506 (and $x148 $x62 $x275 $x366 $x368 $x350 $x263 $x144 $x259 $x220 $x57 $x15 $x457)))
 (let (($x505 (and $x148 $x62 $x275 $x46 $x144 $x259 $x220 $x57 $x64 $x457)))
 (let (($x504 (and $x278 $x221 $x350 $x263 $x144 $x259 $x220 $x57 $x64 $x474)))
 (let (($x503 (and $x62 $x275 $x46 $x144 $x148 $x140 $x41 $x457)))
 (let (($x502 (and $x261 $x275 $x284 $x263 $x144 $x148 $x140 $x41 $x486)))
 (let (($x501 (and $x278 $x221 $x350 $x263 $x144 $x148 $x140 $x41 $x474)))
 (let (($x500 (and $x148 $x62 $x275 $x284 $x263 $x144 $x259 $x220 $x57 $x64 $x457)))
 (let (($x499 (and $x278 $x366 $x368 $x350 $x263 $x144 $x259 $x220 $x57 $x64 $x474)))
 (let (($x498 (and $x278 $x46 $x144 $x259 $x220 $x57 $x42 $x474)))
 (let (($x497 (and $x278 $x46 $x220 $x57 $x259 $x147 $x474)))
 (let (($x496 (and $x62 $x275 $x284 $x263 $x144 $x148 $x140 $x41 $x457)))
 (let (($x495 (and $x261 $x275 $x221 $x350 $x263 $x144 $x148 $x140 $x41 $x486)))
 (let (($x494 (and $x278 $x366 $x368 $x350 $x263 $x144 $x148 $x140 $x41 $x474)))
 (let (($x493 (and $x261 $x374 $x368 $x350 $x263 $x144 $x148 $x140 $x41 $x486)))
 (let (($x492 (and $x148 $x62 $x275 $x221 $x350 $x263 $x144 $x259 $x220 $x57 $x64 $x457)))
 (let (($x491 (and $x148 $x62 $x374 $x368 $x350 $x263 $x144 $x259 $x220 $x57 $x64 $x457)))
 (let (($x490 (and $x278 $x284 $x263 $x144 $x259 $x220 $x57 $x42 $x474)))
 (let (($x489 (and $x278 $x284 $x263 $x220 $x57 $x259 $x147 $x474)))
 (let (($x488 (and $x62 $x275 $x221 $x350 $x263 $x144 $x148 $x140 $x41 $x457)))
 (let (($x487 (and $x261 $x275 $x366 $x368 $x350 $x263 $x144 $x148 $x140 $x41 $x486)))
 (let (($x484 (and $x62 $x374 $x368 $x350 $x263 $x144 $x148 $x140 $x41 $x457)))
 (let (($x483 (and $x148 $x62 $x275 $x366 $x368 $x350 $x263 $x144 $x259 $x220 $x57 $x64 $x457)))
 (let (($x482 (and $x278 $x221 $x350 $x263 $x144 $x259 $x220 $x57 $x42 $x474)))
 (let (($x481 (and $x278 $x221 $x350 $x263 $x220 $x57 $x259 $x147 $x474)))
 (let (($x480 (and $x62 $x275 $x366 $x368 $x350 $x263 $x144 $x148 $x140 $x41 $x457)))
 (let (($x461 (= (_ bv8 32) R)))
 (let (($x430 (= (_ bv4 32) ?x8)))
 (let (($x479 (and $x430 $x62 $x275 $x46 $x144 $x259 $x220 $x57 $x42 $x461)))
 (let (($x453 (and (distinct (_ bv4 32) ?x8) true)))
 (let (($x478 (and $x453 $x62 $x275 $x46 $x144 $x259 $x220 $x57 $x42 $x457)))
 (let (($x477 (and $x278 $x366 $x368 $x350 $x263 $x144 $x259 $x220 $x57 $x42 $x474)))
 (let (($x476 (and $x453 $x62 $x275 $x46 $x220 $x57 $x259 $x147 $x457)))
 (let (($x475 (and $x278 $x366 $x368 $x350 $x263 $x220 $x57 $x259 $x147 $x474)))
 (let (($x473 (and $x430 $x62 $x275 $x284 $x263 $x144 $x259 $x220 $x57 $x42 $x461)))
 (let (($x472 (and $x453 $x62 $x275 $x284 $x263 $x144 $x259 $x220 $x57 $x42 $x457)))
 (let (($x426 (= (_ bv9 32) R)))
 (let (($x471 (and $x430 $x62 $x275 $x46 $x220 $x57 $x259 $x147 $x426)))
 (let (($x470 (and $x453 $x62 $x275 $x284 $x263 $x220 $x57 $x259 $x147 $x457)))
 (let (($x469 (and $x430 $x62 $x275 $x221 $x350 $x263 $x144 $x259 $x220 $x57 $x42 $x461)))
 (let (($x468 (and $x453 $x62 $x275 $x221 $x350 $x263 $x144 $x259 $x220 $x57 $x42 $x457)))
 (let (($x467 (and $x430 $x62 $x374 $x368 $x350 $x263 $x144 $x259 $x220 $x57 $x42 $x461)))
 (let (($x466 (and $x453 $x62 $x374 $x368 $x350 $x263 $x144 $x259 $x220 $x57 $x42 $x457)))
 (let (($x465 (and $x430 $x62 $x275 $x284 $x263 $x220 $x57 $x259 $x147 $x426)))
 (let (($x464 (and $x453 $x62 $x275 $x221 $x350 $x263 $x220 $x57 $x259 $x147 $x457)))
 (let (($x463 (and $x453 $x62 $x374 $x368 $x350 $x263 $x220 $x57 $x259 $x147 $x457)))
 (let (($x462 (and $x430 $x62 $x275 $x366 $x368 $x350 $x263 $x144 $x259 $x220 $x57 $x42 $x461)))
 (let (($x460 (and $x453 $x62 $x275 $x366 $x368 $x350 $x263 $x144 $x259 $x220 $x57 $x42 $x457)))
 (let (($x459 (and $x430 $x62 $x275 $x221 $x350 $x263 $x220 $x57 $x259 $x147 $x426)))
 (let (($x458 (and $x453 $x62 $x275 $x366 $x368 $x350 $x263 $x220 $x57 $x259 $x147 $x457)))
 (let (($x423 (and $x430 $x62 $x374 $x368 $x350 $x263 $x220 $x57 $x259 $x147 $x426)))
 (let (($x455 (and $x430 $x62 $x275 $x366 $x368 $x350 $x263 $x220 $x57 $x259 $x147 $x426)))
 (let (($x539 (or $x455 $x423 $x458 $x459 $x460 $x462 $x463 $x464 $x465 $x466 $x467 $x468 $x469 $x470 $x471 $x472 $x473 $x475 $x476 $x477 $x478 $x479 $x480 $x481 $x482 $x483 $x484 $x487 $x488 $x489 $x490 $x491 $x492 $x493 $x494 $x495 $x496 $x497 $x498 $x499 $x500 $x501 $x502 $x503 $x504 $x505 $x506 $x507 $x508 $x511 $x512 $x513 $x514 $x515 $x516 $x517 $x518 $x520 $x521 $x522 $x524 $x525 $x527 $x528 $x529 $x531 $x532 $x533 $x535 $x536 $x537 $x538)))
 (let (($x541 (not $x539)))
 (let (($x543 (and $x541 $x542)))
 (let (($x540 (and $x539 $x534)))
 (let (($x544 (or $x540 $x543)))
 (not $x544))))))))))))))))))))))))))))))))))))))))))))))))))))))))))))))))))))))))))))))))))))))))))))))))))))))))))))))))))))))))))
(check-sat)
